Data path: /scratch/opt/lxu/CFLG/benchmarks/tree_B
Instance: treeB.250.25
Result path: /scratch/opt/lxu/CFLG/results/tree_B
Solver: Gurobi
Time limit: 7200
Formulation: LEFPAI
Cover: Small
julia --project=. src/main.jl /scratch/opt/lxu/CFLG/benchmarks/tree_B treeB.250.25 /scratch/opt/lxu/CFLG/results/tree_B Gurobi 7200 LEFPAI Small
The latest version of Julia in the `release` channel is 1.11.6+0.x64.linux.gnu. You currently have `1.11.4+0.x64.linux.gnu` installed. Run:

  juliaup update

in your terminal shell to install Julia 1.11.6+0.x64.linux.gnu and update the `release` channel to that version.
/scratch/opt/lxu/CFLG/benchmarks/tree_B Gurobi 7200.0 /scratch/opt/lxu/CFLG/results/tree_B treeB.250.25 LEFPAI Small
/scratch/opt/lxu/CFLG/benchmarks/tree_B/treeB.250.25

 read graph
data loaded


after absorb:194 250

max_piece:18
problem_graph/original graph: node: 194/250 edge: 218/274 dlt: 0.3753222951466306 break_avg_len: 1.886941447159208 break_max_len: 6.046589164837036Vbar/V, Ebar/E(72, 194, 96, 218)
Set parameter TokenServer to value "solice01.zib.de"
Set parameter Threads to value 1
Set parameter OutputFlag to value 1
Gurobi Optimizer version 12.0.1 build v12.0.1rc0 (linux64 - "Debian GNU/Linux 12 (bookworm)")

CPU model: Intel(R) Xeon(R) Gold 5122 CPU @ 3.60GHz, instruction set [SSE2|AVX|AVX2|AVX512]
Thread count: 8 physical cores, 16 logical processors, using up to 1 threads

Non-default parameters:
Threads  1

Optimize a model with 260 rows, 426 columns and 710 nonzeros
Model fingerprint: 0xaf01c160
Coefficient statistics:
  Matrix range     [1e+00, 1e+00]
  Objective range  [1e+00, 1e+00]
  Bounds range     [1e+00, 1e+00]
  RHS range        [1e+00, 1e+00]
Presolve removed 95 rows and 95 columns
Presolve time: 0.00s
Presolved: 165 rows, 331 columns, 520 nonzeros

Iteration    Objective       Primal Inf.    Dual Inf.      Time
       0    1.1300000e+02   4.400000e+01   0.000000e+00      0s
      81    7.2000000e+01   0.000000e+00   0.000000e+00      0s

Solved in 81 iterations and 0.00 seconds (0.00 work units)
Optimal objective  7.200000000e+01

User-callback calls 145, time in user-callback 0.00 sec
elapsed CPU time: 1.326064 seconds
Set parameter TokenServer to value "solice01.zib.de"
Set parameter Threads to value 1
Set parameter OutputFlag to value 1
Set parameter MIPGap to value 0.0001
Set parameter TimeLimit to value 7198.673936

 more cuts: false 0.3753222951466306 false
is_attach:trueformulation:LEFPAI96 46 46

 model loaded

Gurobi Optimizer version 12.0.1 build v12.0.1rc0 (linux64 - "Debian GNU/Linux 12 (bookworm)")

CPU model: Intel(R) Xeon(R) Gold 5122 CPU @ 3.60GHz, instruction set [SSE2|AVX|AVX2|AVX512]
Thread count: 8 physical cores, 16 logical processors, using up to 1 threads

Non-default parameters:
TimeLimit  7198.673936
Threads  1

Optimize a model with 1773 rows, 1366 columns and 3282 nonzeros
Model fingerprint: 0x2db97fd6
Model has 512 simple general constraints
  512 INDICATOR
Variable types: 402 continuous, 964 integer (964 binary)
Coefficient statistics:
  Matrix range     [5e-04, 1e+00]
  Objective range  [1e+00, 1e+00]
  Bounds range     [5e-04, 6e+00]
  RHS range        [5e-04, 6e+00]
  GenCon rhs range [2e-02, 6e+00]
  GenCon coe range [1e+00, 1e+00]
Presolve removed 1043 rows and 676 columns
Presolve time: 0.02s
Presolved: 730 rows, 690 columns, 2201 nonzeros
Variable types: 288 continuous, 402 integer (402 binary)
Found heuristic solution: objective 557.0000000
Found heuristic solution: objective 553.0000000
Found heuristic solution: objective 550.0000000

Root relaxation: objective 5.041106e+02, 822 iterations, 0.01 seconds (0.01 work units)

    Nodes    |    Current Node    |     Objective Bounds      |     Work
 Expl Unexpl |  Obj  Depth IntInf | Incumbent    BestBd   Gap | It/Node Time

     0     0  504.11062    0  208  550.00000  504.11062  8.34%     -    0s
H    0     0                     548.0000000  504.11062  8.01%     -    0s
     0     0  519.24033    0  198  548.00000  519.24033  5.25%     -    0s
H    0     0                     547.0000000  519.24033  5.07%     -    0s
H    0     0                     546.0000000  519.24033  4.90%     -    0s
     0     0  519.36360    0  217  546.00000  519.36360  4.88%     -    0s
     0     0  519.36820    0  218  546.00000  519.36820  4.88%     -    0s
     0     0  524.85834    0  178  546.00000  524.85834  3.87%     -    0s
     0     0  525.45093    0  170  546.00000  525.45093  3.76%     -    0s
     0     0  525.45128    0  172  546.00000  525.45128  3.76%     -    0s
     0     0  526.77421    0  172  546.00000  526.77421  3.52%     -    0s
     0     0  526.91502    0  172  546.00000  526.91502  3.50%     -    0s
     0     0  526.93179    0  176  546.00000  526.93179  3.49%     -    0s
     0     0  526.93235    0  178  546.00000  526.93235  3.49%     -    0s
     0     0  528.54161    0  156  546.00000  528.54161  3.20%     -    0s
H    0     0                     542.0000000  529.04161  2.39%     -    0s
H    0     0                     541.0000000  529.04161  2.21%     -    0s
     0     0  529.04161    0  159  541.00000  529.04161  2.21%     -    0s
     0     0  529.04161    0  147  541.00000  529.04161  2.21%     -    0s
     0     0  529.04161    0   93  541.00000  529.04161  2.21%     -    0s
H    0     0                     540.0000000  529.04161  2.03%     -    0s
H    0     0                     539.0000000  529.04161  1.85%     -    0s
H    0     0                     538.0000000  529.04161  1.67%     -    0s
     0     2  529.07775    0   85  538.00000  529.07775  1.66%     -    0s
H   27    27                     537.0000000  529.07775  1.48%  14.5    0s
*  500   374              57     536.0000000  529.27954  1.25%   9.4    0s
*  906   401              52     535.0000000  534.00000  0.19%  27.9    2s
  3739    39  534.00000   44   67  535.00000  534.00000  0.19%  21.9    5s
  8845    67     cutoff   41       535.00000  534.00000  0.19%  21.9   10s

Cutting planes:
  Learned: 1
  Gomory: 28
  Cover: 148
  Implied bound: 20
  Clique: 3
  MIR: 44
  Mixing: 16
  StrongCG: 7
  Flow cover: 196
  GUB cover: 1
  Zero half: 2
  RLT: 16
  Relax-and-lift: 11
  BQP: 1

Explored 9459 nodes (212421 simplex iterations) in 10.57 seconds (6.17 work units)
Thread count was 1 (of 16 available processors)

Solution count 10: 535 536 537 ... 547

Optimal solution found (tolerance 1.00e-04)
Warning: max constraint violation (1.0000e-06) exceeds tolerance
Best objective 5.350000000000e+02, best bound 5.350000000000e+02, gap 0.0000%

User-callback calls 24407, time in user-callback 0.01 sec

 sepatime0 0 0
535.0
Stat(MathOptInterface.OPTIMAL, 535.0, 535.0, 0.0, 0.0, 1.326064, 10.565505027770996, 9459, Main.CFLG.LEFPAI, "", #undef)
